







































































































30 27 28 69 31 71 50 
5 41 76 36 11 58 70 23 
26 56 46 48 12 35 61 
40 14 6 44 17 42 53 
74 59 15 57 8 55 65 
68 39 66 54 24 75 38 
73 2 51 45 21 67 33 
1 20 63 16 64 19 0 
34 49 13 37 9 62 18 
72 60 43 25 32 4 22 
3 47 7 10 29 52 
